N = 10;
H = 5;
T = 2;

avail = array3d(1..N, 1..H, 1..T, [3, 1, 2, 3, 5, 5, 8, 0, 3, 5, 2, 8, 0, 8, 1, 2, 9, 8, 10, 10, 4, 6, 8, 2, 9, 8, 9, 2, 6, 1, 8, 4, 6, 8, 10, 7, 1, 0, 1, 10, 8, 3, 6, 0, 9, 6, 8, 8, 0, 4, 7, 1, 8, 6, 3, 0, 5, 3, 2, 3, 9, 6, 3, 7, 1, 7, 9, 1, 7, 10, 2, 5, 7, 5, 1, 10, 5, 2, 5, 7, 9, 10, 8, 7, 7, 9, 5, 1, 0, 5, 5, 1, 3, 2, 8, 4, 4, 8, 8, 1]);

r = array2d(1..H, 1..T, [6, 1, 1, 3, 3, 4, 4, 1, 3, 4]);
